(set-info :smt-lib-version 2.6)
(set-logic QF_SLIA)
(set-info :source |
Generated by: Dmitry Blotsky1, Federico Mora, Murphy Berzish, Yunhui Zheng, Ifaz Kabir, Vijay Ganesh, Zhengyang Lu
Generated on: 2018-01-24
Generator: StringFuzz
Application: Evaluate string solvers
Target solver: Z3str3, CVC4, Z3str2, Norn
Publications: Blotsky, D., Mora, F., Berzish, M., Zheng, Y., Kabir, I., & Ganesh, V. (2018). Stringfuzz: A fuzzer for string solvers. In CAV 2018.
Description: transformed by StringFuzz, a modular string and regex fuzzer, from an industrial benchmark
|)
(set-info :license "https://creativecommons.org/licenses/by/4.0/")
(set-info :category "random")
(set-info :status unknown)

(declare-const x String)
(declare-const y String)
(assert (= x "~zJlA]\\' '~7_^j.UuNc*R#_6,eMk9<~$Su'\x0c'_'\x0b'3o'\r'-i9}[q0$Xl4|ZJP' 'N=Ghn""j[`'\n'US'?&qZea^5$|^'\n'^'\t'*`nr,UP7,Y.BgOq9s'\x0b''\n'Z`' 'SpyN\\\\<aYuy'\r'RmSrdn~'Fgm_*`~<v*bHg'\x0b'#'\n'ih?l{'\x0c'9[a.8P<4gQ'\x0b'o""c>u' 'oLabAnM|5WOT-LW8d35}g-uec{7#o`saiRl4"))
(assert (str.in_re x (re.+ (str.to_re "x"))))
(check-sat)

(exit)
